Set parameter TokenServer to value "hpc-licenses.hpcc.usc.edu"
Set parameter TimeLimit to value 3600
Gurobi Optimizer version 9.5.1 build v9.5.1rc2 (linux64)
Thread count: 20 physical cores, 20 logical processors, using up to 20 threads
Optimize a model with 14015 rows, 10581 columns and 64598 nonzeros
Model fingerprint: 0xd2221daa
Variable types: 10514 continuous, 67 integer (67 binary)
Coefficient statistics:
  Matrix range     [1e+00, 1e+00]
  Objective range  [2e-03, 1e+00]
  Bounds range     [1e+00, 1e+00]
  RHS range        [1e+00, 1e+02]
Presolve removed 3061 rows and 3048 columns
Presolve time: 0.23s
Presolved: 10954 rows, 7533 columns, 59849 nonzeros
Variable types: 7473 continuous, 60 integer (60 binary)
Found heuristic solution: objective 256.0502647

Root relaxation: objective 2.610484e+02, 4666 iterations, 0.23 seconds (0.23 work units)

    Nodes    |    Current Node    |     Objective Bounds      |     Work
 Expl Unexpl |  Obj  Depth IntInf | Incumbent    BestBd   Gap | It/Node Time

     0     0  261.04837    0    6  256.05026  261.04837  1.95%     -    0s
     0     0  261.02157    0    9  256.05026  261.02157  1.94%     -    0s
H    0     0                     256.8294855  261.02157  1.63%     -    0s
     0     0  260.98197    0   15  256.82949  260.98197  1.62%     -    1s
     0     0  260.98197    0   15  256.82949  260.98197  1.62%     -    1s
H    0     0                     259.2031607  260.91558  0.66%     -    1s
     0     0  260.91558    0   20  259.20316  260.91558  0.66%     -    1s
     0     0  260.91558    0   20  259.20316  260.91558  0.66%     -    1s
     0     0  260.91558    0   16  259.20316  260.91558  0.66%     -    1s
     0     0  260.91558    0   17  259.20316  260.91558  0.66%     -    1s
     0     0  260.91558    0   14  259.20316  260.91558  0.66%     -    1s
     0     0  260.91558    0   19  259.20316  260.91558  0.66%     -    2s
     0     0  260.91558    0   13  259.20316  260.91558  0.66%     -    2s
     0     2  260.91558    0   12  259.20316  260.91558  0.66%     -    2s
*   17    12               4     259.2691674  260.87663  0.62%   594    4s
    33    16  260.85369    6   13  259.26917  260.85369  0.61%   434    5s
*   34    16               6     259.5751793  260.85369  0.49%   423    5s
H  157    25                     259.6124746  260.77275  0.45%   240    8s
   232    21  260.67556   19    9  259.61247  260.70318  0.42%   199   10s
*  349    11              24     259.6149477  260.16417  0.21%   188   11s
H  368     8                     259.7865785  260.09361  0.12%   184   12s

Cutting planes:
  MIR: 60
  Flow cover: 32
  RLT: 12
  Relax-and-lift: 11

Explored 382 nodes (77038 simplex iterations) in 13.24 seconds (4.40 work units)
Thread count was 20 (of 20 available processors)

Solution count 8: 259.787 259.615 259.612 ... 256.05

Optimal solution found (tolerance 1.00e-04)
Best objective 2.597865785112e+02, best bound 2.597865785112e+02, gap 0.0000%



#########node  1
V2.6
#########node  2
V1.9
#########node  3
V1.8
#########node  4
0.0,1.0
#########node  5
1.0,0.0
#########node  6
0.0,1.0
#########node  7
1.0,0.0


Total Solving Time 14.178391695022583
obj value 259.78657851117975
Policy Regret train (Sum) 0.7304099312861455
Best Treatment Found train (%) 91.8
treatment classification acc train (%) 50.6
Policy Regret test (Sum) 102.93982789453857
Best Treatment Found test (%) 66.3
treatment classification acc test (%) 49.51
Set parameter TokenServer to value "hpc-licenses.hpcc.usc.edu"
Set parameter TimeLimit to value 3600
Gurobi Optimizer version 9.5.1 build v9.5.1rc2 (linux64)
Thread count: 20 physical cores, 20 logical processors, using up to 20 threads
Optimize a model with 14015 rows, 10581 columns and 64598 nonzeros
Model fingerprint: 0xd2221daa
Variable types: 10514 continuous, 67 integer (67 binary)
Coefficient statistics:
  Matrix range     [1e+00, 1e+00]
  Objective range  [2e-03, 1e+00]
  Bounds range     [1e+00, 1e+00]
  RHS range        [1e+00, 1e+02]
Presolve removed 3061 rows and 3048 columns
Presolve time: 0.23s
Presolved: 10954 rows, 7533 columns, 59849 nonzeros
Variable types: 7473 continuous, 60 integer (60 binary)
Found heuristic solution: objective 256.0502647

Root relaxation: objective 2.610484e+02, 4666 iterations, 0.24 seconds (0.23 work units)

    Nodes    |    Current Node    |     Objective Bounds      |     Work
 Expl Unexpl |  Obj  Depth IntInf | Incumbent    BestBd   Gap | It/Node Time

     0     0  261.04837    0    6  256.05026  261.04837  1.95%     -    0s
     0     0  261.02157    0    9  256.05026  261.02157  1.94%     -    0s
H    0     0                     256.8294855  261.02157  1.63%     -    0s
     0     0  260.98197    0   15  256.82949  260.98197  1.62%     -    1s
     0     0  260.98197    0   15  256.82949  260.98197  1.62%     -    1s
H    0     0                     259.2031607  260.91558  0.66%     -    1s
     0     0  260.91558    0   20  259.20316  260.91558  0.66%     -    1s
     0     0  260.91558    0   20  259.20316  260.91558  0.66%     -    1s
     0     0  260.91558    0   16  259.20316  260.91558  0.66%     -    1s
     0     0  260.91558    0   17  259.20316  260.91558  0.66%     -    1s
     0     0  260.91558    0   14  259.20316  260.91558  0.66%     -    1s
     0     0  260.91558    0   19  259.20316  260.91558  0.66%     -    2s
     0     0  260.91558    0   13  259.20316  260.91558  0.66%     -    2s
     0     2  260.91558    0   12  259.20316  260.91558  0.66%     -    2s
*   17    12               4     259.2691674  260.87663  0.62%   594    4s
    21    16  260.85369    5   13  259.26917  260.86181  0.61%   560    5s
*   34    16               6     259.5751793  260.85369  0.49%   423    5s
   154    25  260.76753   16   10  259.57518  260.77275  0.46%   242   10s
H  157    25                     259.6124746  260.77275  0.45%   240   10s
*  349    11              24     259.6149477  260.16417  0.21%   188   12s
H  368     8                     259.7865785  260.09361  0.12%   184   13s

Cutting planes:
  MIR: 60
  Flow cover: 32
  RLT: 12
  Relax-and-lift: 11

Explored 382 nodes (77038 simplex iterations) in 14.13 seconds (4.40 work units)
Thread count was 20 (of 20 available processors)

Solution count 8: 259.787 259.615 259.612 ... 256.05

Optimal solution found (tolerance 1.00e-04)
Best objective 2.597865785112e+02, best bound 2.597865785112e+02, gap 0.0000%



#########node  1
V2.6
#########node  2
V1.9
#########node  3
V1.8
#########node  4
0.0,1.0
#########node  5
1.0,0.0
#########node  6
0.0,1.0
#########node  7
1.0,0.0


Total Solving Time 15.019574642181396
obj value 259.78657851117975
Policy Regret train (Sum) 0.7304099312861455
Best Treatment Found train (%) 91.8
treatment classification acc train (%) 50.6
Policy Regret test (Sum) 102.93982789453857
Best Treatment Found test (%) 66.3
treatment classification acc test (%) 49.51
